c "258795.clq"
p edge 100 1344
e 1 17
e 1 18
e 1 19
e 1 20
e 1 21
e 1 23
e 1 24
e 1 27
e 1 29
e 1 30
e 1 32
e 1 36
e 1 45
e 1 47
e 1 48
e 1 50
e 1 56
e 1 61
e 1 64
e 1 71
e 1 73
e 1 76
e 1 86
e 2 17
e 2 18
e 2 19
e 2 20
e 2 21
e 2 22
e 2 24
e 2 25
e 2 28
e 2 33
e 2 34
e 2 37
e 2 39
e 2 44
e 2 45
e 2 47
e 2 54
e 2 59
e 2 62
e 2 67
e 2 73
e 2 82
e 2 96
e 2 98
e 2 99
e 3 17
e 3 18
e 3 19
e 3 20
e 3 21
e 3 22
e 3 23
e 3 27
e 3 29
e 3 30
e 3 31
e 3 34
e 3 35
e 3 37
e 3 38
e 3 39
e 3 59
e 3 61
e 3 64
e 3 69
e 3 70
e 3 72
e 3 82
e 3 89
e 4 17
e 4 18
e 4 19
e 4 20
e 4 21
e 4 22
e 4 24
e 4 25
e 4 26
e 4 27
e 4 28
e 4 29
e 4 30
e 4 31
e 4 32
e 4 33
e 4 35
e 4 45
e 4 46
e 4 47
e 4 61
e 4 62
e 4 64
e 4 67
e 4 72
e 4 73
e 4 78
e 4 91
e 4 94
e 4 99
e 4 100
e 5 17
e 5 18
e 5 19
e 5 22
e 5 23
e 5 24
e 5 25
e 5 26
e 5 27
e 5 29
e 5 31
e 5 34
e 5 36
e 5 40
e 5 41
e 5 47
e 5 49
e 5 53
e 5 54
e 5 55
e 5 68
e 5 69
e 5 71
e 5 77
e 5 78
e 5 81
e 5 98
e 6 17
e 6 18
e 6 19
e 6 20
e 6 21
e 6 22
e 6 23
e 6 35
e 6 37
e 6 38
e 6 41
e 6 69
e 6 70
e 6 71
e 6 79
e 6 83
e 6 93
e 7 17
e 7 18
e 7 19
e 7 20
e 7 21
e 7 22
e 7 23
e 7 24
e 7 25
e 7 27
e 7 28
e 7 31
e 7 34
e 7 36
e 7 37
e 7 38
e 7 40
e 7 44
e 7 50
e 7 58
e 7 65
e 7 66
e 7 73
e 7 77
e 7 83
e 7 85
e 7 91
e 7 93
e 8 17
e 8 18
e 8 25
e 8 26
e 8 38
e 8 42
e 8 46
e 8 47
e 8 48
e 8 53
e 8 55
e 8 57
e 8 66
e 8 75
e 8 79
e 8 86
e 8 93
e 8 99
e 9 17
e 9 18
e 9 19
e 9 20
e 9 21
e 9 22
e 9 23
e 9 25
e 9 26
e 9 27
e 9 28
e 9 30
e 9 34
e 9 35
e 9 36
e 9 43
e 9 45
e 9 46
e 9 57
e 9 59
e 9 71
e 9 72
e 9 74
e 9 78
e 9 85
e 9 87
e 9 90
e 9 95
e 10 17
e 10 18
e 10 20
e 10 21
e 10 22
e 10 23
e 10 32
e 10 92
e 10 94
e 10 99
e 11 17
e 11 18
e 11 19
e 11 20
e 11 21
e 11 22
e 11 23
e 11 25
e 11 26
e 11 27
e 11 31
e 11 33
e 11 39
e 11 40
e 11 42
e 11 43
e 11 44
e 11 45
e 11 51
e 11 52
e 11 56
e 11 70
e 11 71
e 11 73
e 11 75
e 11 77
e 11 80
e 11 81
e 12 17
e 12 19
e 12 26
e 12 27
e 12 28
e 12 29
e 12 36
e 12 39
e 12 84
e 12 96
e 13 17
e 13 18
e 13 19
e 13 20
e 13 21
e 13 22
e 13 23
e 13 24
e 13 26
e 13 28
e 13 29
e 13 32
e 13 33
e 13 34
e 13 41
e 13 43
e 13 46
e 13 49
e 13 58
e 13 60
e 13 68
e 13 74
e 13 80
e 13 81
e 13 88
e 13 96
e 14 17
e 14 18
e 14 19
e 14 20
e 14 21
e 14 24
e 14 31
e 14 34
e 14 37
e 14 41
e 14 42
e 14 46
e 14 49
e 14 55
e 14 58
e 14 61
e 14 73
e 14 76
e 14 82
e 14 94
e 14 95
e 15 17
e 15 18
e 15 19
e 15 20
e 15 21
e 15 22
e 15 23
e 15 24
e 15 28
e 15 30
e 15 31
e 15 32
e 15 40
e 15 42
e 15 44
e 15 60
e 15 70
e 15 71
e 15 77
e 15 82
e 15 90
e 15 91
e 16 17
e 16 18
e 16 19
e 16 20
e 16 24
e 16 25
e 16 26
e 16 28
e 16 29
e 16 30
e 16 31
e 16 32
e 16 33
e 16 36
e 16 38
e 16 40
e 16 41
e 16 46
e 16 50
e 16 53
e 16 56
e 16 61
e 16 64
e 16 82
e 16 83
e 16 86
e 16 94
e 16 100
e 17 18
e 17 19
e 17 20
e 17 21
e 17 22
e 17 23
e 17 24
e 17 25
e 17 26
e 17 27
e 17 28
e 17 29
e 17 30
e 17 31
e 17 32
e 17 34
e 17 35
e 17 36
e 17 37
e 17 39
e 17 40
e 17 41
e 17 42
e 17 43
e 17 45
e 17 47
e 17 48
e 17 49
e 17 55
e 17 56
e 17 57
e 17 58
e 17 61
e 17 63
e 17 71
e 17 76
e 17 77
e 17 78
e 17 80
e 17 83
e 17 84
e 17 85
e 17 92
e 17 94
e 17 96
e 17 97
e 17 98
e 17 99
e 18 19
e 18 20
e 18 21
e 18 22
e 18 23
e 18 24
e 18 25
e 18 26
e 18 27
e 18 28
e 18 29
e 18 30
e 18 32
e 18 33
e 18 34
e 18 35
e 18 36
e 18 37
e 18 39
e 18 41
e 18 42
e 18 44
e 18 45
e 18 46
e 18 48
e 18 49
e 18 51
e 18 53
e 18 55
e 18 56
e 18 57
e 18 58
e 18 59
e 18 60
e 18 62
e 18 63
e 18 64
e 18 65
e 18 70
e 18 71
e 18 74
e 18 75
e 18 76
e 18 78
e 18 80
e 18 84
e 18 85
e 18 89
e 18 93
e 18 96
e 18 99
e 19 20
e 19 21
e 19 22
e 19 23
e 19 24
e 19 25
e 19 26
e 19 27
e 19 28
e 19 29
e 19 30
e 19 31
e 19 32
e 19 33
e 19 35
e 19 39
e 19 42
e 19 43
e 19 44
e 19 45
e 19 46
e 19 47
e 19 49
e 19 51
e 19 52
e 19 53
e 19 56
e 19 57
e 19 59
e 19 63
e 19 72
e 19 77
e 19 79
e 19 81
e 19 87
e 19 88
e 19 91
e 19 95
e 20 21
e 20 22
e 20 23
e 20 24
e 20 25
e 20 26
e 20 27
e 20 28
e 20 30
e 20 31
e 20 33
e 20 34
e 20 36
e 20 37
e 20 38
e 20 40
e 20 46
e 20 48
e 20 50
e 20 54
e 20 58
e 20 63
e 20 64
e 20 65
e 20 67
e 20 68
e 20 69
e 20 74
e 20 76
e 20 79
e 20 86
e 20 92
e 20 100
e 21 22
e 21 23
e 21 24
e 21 25
e 21 28
e 21 29
e 21 30
e 21 32
e 21 33
e 21 34
e 21 35
e 21 36
e 21 37
e 21 38
e 21 42
e 21 43
e 21 45
e 21 49
e 21 50
e 21 52
e 21 53
e 21 56
e 21 57
e 21 62
e 21 63
e 21 65
e 21 71
e 21 76
e 21 79
e 21 80
e 21 83
e 21 84
e 21 86
e 21 87
e 21 89
e 21 90
e 21 95
e 21 98
e 21 99
e 22 23
e 22 24
e 22 25
e 22 26
e 22 27
e 22 29
e 22 30
e 22 31
e 22 33
e 22 35
e 22 36
e 22 37
e 22 38
e 22 40
e 22 41
e 22 42
e 22 43
e 22 44
e 22 45
e 22 48
e 22 49
e 22 50
e 22 51
e 22 53
e 22 55
e 22 56
e 22 57
e 22 58
e 22 60
e 22 61
e 22 62
e 22 64
e 22 66
e 22 68
e 22 69
e 22 72
e 22 76
e 22 77
e 22 79
e 22 80
e 22 81
e 22 82
e 22 83
e 22 84
e 22 86
e 22 87
e 22 88
e 22 94
e 22 100
e 23 24
e 23 25
e 23 26
e 23 27
e 23 28
e 23 29
e 23 30
e 23 32
e 23 33
e 23 34
e 23 35
e 23 37
e 23 38
e 23 39
e 23 40
e 23 41
e 23 44
e 23 45
e 23 47
e 23 49
e 23 50
e 23 52
e 23 54
e 23 55
e 23 56
e 23 59
e 23 60
e 23 61
e 23 62
e 23 65
e 23 67
e 23 74
e 23 78
e 23 79
e 23 81
e 23 82
e 23 83
e 23 84
e 23 85
e 23 91
e 23 93
e 23 94
e 23 96
e 23 99
e 24 25
e 24 26
e 24 27
e 24 28
e 24 29
e 24 30
e 24 31
e 24 32
e 24 33
e 24 40
e 24 41
e 24 43
e 24 48
e 24 54
e 24 58
e 24 60
e 24 64
e 24 66
e 24 70
e 24 78
e 24 85
e 24 91
e 24 92
e 24 95
e 24 97
e 25 26
e 25 27
e 25 28
e 25 32
e 25 33
e 25 34
e 25 36
e 25 37
e 25 38
e 25 39
e 25 45
e 25 47
e 25 48
e 25 50
e 25 51
e 25 56
e 25 58
e 25 60
e 25 62
e 25 63
e 25 66
e 25 72
e 25 76
e 25 80
e 25 85
e 25 90
e 25 93
e 25 96
e 25 97
e 26 31
e 26 37
e 26 39
e 26 42
e 26 52
e 26 54
e 26 56
e 26 59
e 26 62
e 26 63
e 26 65
e 26 67
e 26 68
e 26 70
e 26 74
e 26 76
e 26 81
e 26 85
e 26 89
e 26 91
e 26 95
e 27 29
e 27 30
e 27 32
e 27 33
e 27 34
e 27 35
e 27 36
e 27 38
e 27 42
e 27 43
e 27 46
e 27 53
e 27 54
e 27 59
e 27 62
e 27 65
e 27 66
e 27 68
e 27 73
e 27 79
e 27 80
e 27 84
e 27 89
e 27 93
e 27 95
e 27 99
e 28 29
e 28 31
e 28 32
e 28 33
e 28 35
e 28 37
e 28 39
e 28 40
e 28 44
e 28 47
e 28 48
e 28 52
e 28 53
e 28 58
e 28 59
e 28 61
e 28 69
e 28 73
e 28 77
e 28 78
e 28 79
e 28 88
e 29 30
e 29 32
e 29 35
e 29 36
e 29 38
e 29 39
e 29 40
e 29 41
e 29 42
e 29 43
e 29 47
e 29 49
e 29 50
e 29 51
e 29 52
e 29 54
e 29 55
e 29 57
e 29 59
e 29 60
e 29 61
e 29 63
e 29 64
e 29 67
e 29 73
e 29 79
e 29 81
e 29 83
e 29 87
e 29 89
e 29 91
e 30 31
e 30 34
e 30 35
e 30 36
e 30 39
e 30 46
e 30 47
e 30 48
e 30 49
e 30 52
e 30 58
e 30 61
e 30 63
e 30 68
e 30 69
e 30 75
e 30 80
e 30 83
e 30 86
e 30 89
e 30 92
e 30 94
e 30 100
e 31 33
e 31 39
e 31 42
e 31 45
e 31 47
e 31 51
e 31 54
e 31 67
e 31 69
e 31 70
e 31 72
e 31 77
e 31 78
e 31 81
e 31 95
e 32 34
e 32 35
e 32 36
e 32 37
e 32 38
e 32 40
e 32 41
e 32 43
e 32 44
e 32 47
e 32 50
e 32 51
e 32 52
e 32 53
e 32 56
e 32 60
e 32 61
e 32 63
e 32 64
e 32 66
e 32 69
e 32 70
e 32 76
e 32 81
e 32 82
e 32 84
e 32 86
e 32 89
e 32 97
e 33 35
e 33 37
e 33 40
e 33 48
e 33 50
e 33 51
e 33 54
e 33 55
e 33 62
e 33 66
e 33 67
e 33 73
e 33 74
e 33 88
e 33 91
e 33 92
e 34 40
e 34 41
e 34 43
e 34 45
e 34 49
e 34 51
e 34 54
e 34 55
e 34 64
e 34 65
e 34 84
e 34 85
e 34 87
e 34 89
e 34 97
e 35 38
e 35 40
e 35 41
e 35 43
e 35 51
e 35 52
e 35 55
e 35 56
e 35 57
e 35 62
e 35 70
e 35 75
e 35 90
e 35 92
e 36 38
e 36 39
e 36 41
e 36 42
e 36 45
e 36 51
e 36 53
e 36 57
e 36 60
e 36 64
e 36 66
e 36 67
e 36 68
e 36 69
e 36 75
e 36 76
e 36 77
e 36 78
e 36 79
e 36 81
e 36 84
e 36 85
e 36 89
e 36 90
e 36 93
e 36 98
e 36 100
e 37 38
e 37 39
e 37 41
e 37 44
e 37 45
e 37 50
e 37 54
e 37 56
e 37 59
e 37 60
e 37 63
e 37 67
e 37 73
e 37 75
e 37 88
e 37 90
e 37 96
e 38 44
e 38 46
e 38 47
e 38 49
e 38 51
e 38 52
e 38 54
e 38 59
e 38 65
e 38 68
e 38 69
e 38 70
e 38 72
e 38 74
e 38 75
e 38 80
e 38 82
e 38 87
e 38 90
e 38 94
e 38 98
e 39 42
e 39 43
e 39 44
e 39 46
e 39 47
e 39 71
e 39 72
e 39 78
e 39 90
e 39 92
e 40 43
e 40 48
e 40 51
e 40 54
e 40 55
e 40 57
e 40 60
e 40 61
e 40 77
e 40 79
e 40 82
e 40 85
e 40 86
e 40 91
e 40 98
e 41 42
e 41 44
e 41 49
e 41 50
e 41 52
e 41 55
e 41 57
e 41 60
e 41 65
e 41 66
e 41 69
e 41 70
e 41 72
e 41 78
e 41 81
e 41 93
e 41 95
e 42 43
e 42 44
e 42 48
e 42 49
e 42 50
e 42 51
e 42 52
e 42 54
e 42 55
e 42 56
e 42 57
e 42 58
e 42 59
e 42 61
e 42 65
e 42 66
e 42 67
e 42 69
e 42 72
e 42 75
e 42 87
e 42 88
e 42 90
e 42 94
e 42 95
e 42 97
e 43 44
e 43 46
e 43 49
e 43 52
e 43 53
e 43 54
e 43 58
e 43 61
e 43 64
e 43 66
e 43 73
e 43 76
e 43 77
e 43 78
e 43 80
e 43 81
e 43 83
e 43 85
e 43 89
e 43 90
e 43 98
e 43 99
e 44 46
e 44 48
e 44 50
e 44 53
e 44 58
e 44 62
e 44 63
e 44 64
e 44 65
e 44 80
e 44 83
e 44 86
e 44 88
e 44 99
e 45 46
e 45 48
e 45 52
e 45 53
e 45 57
e 45 58
e 45 72
e 45 77
e 45 86
e 45 92
e 45 96
e 46 53
e 46 73
e 46 84
e 46 95
e 46 98
e 47 48
e 47 55
e 47 66
e 47 69
e 47 74
e 47 75
e 47 84
e 47 93
e 47 94
e 47 96
e 47 100
e 48 50
e 48 51
e 48 53
e 48 62
e 48 67
e 48 71
e 48 88
e 48 92
e 48 93
e 49 52
e 49 58
e 49 59
e 49 60
e 49 62
e 49 67
e 49 70
e 49 72
e 49 74
e 49 75
e 49 87
e 49 91
e 49 97
e 50 59
e 50 63
e 50 66
e 50 69
e 50 71
e 50 85
e 50 88
e 50 90
e 50 100
e 51 55
e 51 56
e 51 63
e 51 65
e 51 70
e 51 73
e 51 75
e 51 82
e 51 84
e 51 89
e 51 92
e 51 93
e 51 100
e 52 59
e 52 68
e 52 79
e 52 81
e 52 92
e 52 100
e 53 57
e 53 68
e 53 70
e 53 71
e 53 72
e 53 76
e 53 97
e 54 63
e 54 65
e 54 68
e 54 73
e 54 77
e 54 88
e 54 91
e 55 57
e 55 62
e 55 63
e 55 67
e 55 68
e 55 75
e 55 78
e 55 82
e 55 87
e 55 90
e 55 93
e 55 94
e 55 95
e 55 96
e 56 60
e 56 71
e 56 83
e 56 88
e 56 89
e 56 94
e 56 98
e 56 99
e 57 61
e 57 64
e 57 77
e 57 80
e 57 81
e 57 87
e 57 90
e 57 95
e 57 97
e 57 98
e 58 60
e 58 66
e 58 70
e 58 74
e 58 76
e 59 62
e 59 64
e 59 71
e 59 82
e 59 88
e 60 65
e 60 67
e 60 74
e 60 79
e 60 82
e 60 83
e 60 84
e 60 85
e 60 95
e 61 65
e 61 68
e 61 71
e 61 74
e 61 75
e 61 78
e 61 87
e 61 97
e 62 72
e 62 78
e 62 82
e 62 83
e 62 85
e 62 89
e 62 93
e 62 96
e 62 97
e 63 67
e 63 68
e 63 74
e 63 93
e 64 66
e 64 68
e 64 83
e 64 86
e 64 87
e 64 93
e 64 94
e 64 98
e 65 69
e 65 80
e 66 75
e 66 90
e 66 98
e 66 100
e 67 72
e 67 74
e 67 85
e 69 74
e 69 79
e 69 80
e 69 81
e 69 82
e 69 84
e 69 92
e 69 98
e 69 100
e 70 73
e 70 76
e 70 80
e 70 88
e 71 76
e 71 86
e 71 97
e 72 84
e 72 92
e 72 95
e 72 97
e 73 75
e 73 77
e 73 98
e 73 99
e 74 87
e 75 79
e 75 89
e 75 91
e 76 83
e 76 91
e 76 95
e 77 89
e 77 96
e 78 86
e 78 87
e 78 94
e 79 91
e 79 97
e 82 86
e 82 91
e 83 86
e 83 90
e 83 94
e 83 100
e 84 88
e 85 87
e 85 88
e 85 92
e 86 92
e 86 96
e 86 98
e 88 97
e 88 99
e 90 100
e 92 96
e 92 97
e 93 96
e 93 100
e 94 99
e 95 99
e 97 100
